Traveling Salesman Problem/TSP_generados/Aleatorio1620391052_13.tsp
NAME: Aleatorio1620391052_13.tsp
COMMENT: Randomly generated scenario
TYPE: TSP
DIMENSION: 13
EDGE_WEIGHT_TYPE: ATT
NODE_COORD_SECTION
1 19.25 3.11
2 26.03 34.07
3 23.59 8.81
4 38.2 22.86
5 34.23 42.46
6 36.63 20.18
7 2.47 48.69
8 25.53 26.83
9 23.67 29.26
10 34.83 36.46
11 12.38 9.9
12 29.94 6.74
13 31.81 24.82
