Traveling Salesman Problem/TSP_generados/Aleatorio1620391052_13.opt.tour
NAME: Aleatorio1620391052_13.opt.tour
COMMENT: Optimal solution for Aleatorio1620391052_13 (150.86673950957723)
TYPE: TOUR
DIMENSION: 13
TOUR_SECTION
1 3 12 6 4 13 8 9 2 10 5 7 11
-1
EOF
